&CONTROL
  calculation = 'scf',
  prefix = 'neon',
  outdir = './tmp'
/
&SYSTEM
  ibrav = 1,
  celldm(1) = 10.0,
  nat = 1,
  ntyp = 1,
  ecutwfc = 40.0,
  occupations = 'fixed'
/
&ELECTRONS
  conv_thr = 1.0d-8
/
ATOMIC_SPECIES
 Ne 20.1797 Ne.pz-n-rrkjus_psl.1.0.0.UPF
ATOMIC_POSITIONS (angstrom)
 Ne 0.0 0.0 0.0
K_POINTS automatic
 1 1 1 0 0 0
